
Gurobi 9.1.2 (linux64) logging started Thu Mar 31 09:07:39 2022

Changed value of parameter LogFile to ny_v-N14.log
   Prev:   Default: 
Changed value of parameter MIPFocus to 1
   Prev: 0  Min: 0  Max: 3  Default: 0
Changed value of parameter TimeLimit to 600.0
   Prev: inf  Min: 0.0  Max: inf  Default: inf
Warning: variables 0 and 130 have the same name "X[N2,N1]"
Warning: linear constraint 102 and linear constraint 103 have the same name "weight-constr-t5"
Warning: to let Gurobi read it back, use rlp format
Gurobi Optimizer version 9.1.2 build v9.1.2rc0 (linux64)
Thread count: 32 physical cores, 64 logical processors, using up to 32 threads
Optimize a model with 825 rows, 780 columns and 2742 nonzeros
Model fingerprint: 0x06d568a3
Variable types: 96 continuous, 684 integer (684 binary)
Coefficient statistics:
  Matrix range     [1e+00, 1e+06]
  Objective range  [2e-01, 2e-01]
  Bounds range     [1e+00, 5e+05]
  RHS range        [1e+00, 1e+06]
Presolve removed 270 rows and 300 columns
Presolve time: 0.01s
Presolved: 555 rows, 480 columns, 3467 nonzeros
Variable types: 84 continuous, 396 integer (390 binary)
Found heuristic solution: objective 41.8333333
Found heuristic solution: objective 24.8333333

Root relaxation: objective 1.500000e+01, 65 iterations, 0.00 seconds

    Nodes    |    Current Node    |     Objective Bounds      |     Work
 Expl Unexpl |  Obj  Depth IntInf | Incumbent    BestBd   Gap | It/Node Time

     0     0   15.00000    0   12   24.83333   15.00000  39.6%     -    0s
H    0     0                      18.6666667   15.00000  19.6%     -    0s
H    0     0                      18.1666667   15.00000  17.4%     -    0s
H    0     0                      17.1666667   15.00000  12.6%     -    0s
     0     0   15.00000    0   17   17.16667   15.00000  12.6%     -    0s
H    0     0                      16.7500000   15.00000  10.4%     -    0s
     0     0   15.00000    0    8   16.75000   15.00000  10.4%     -    0s
H    0     0                      16.5833333   15.00000  9.55%     -    0s
     0     0   15.00000    0    7   16.58333   15.00000  9.55%     -    0s
     0     0   15.00000    0    7   16.58333   15.00000  9.55%     -    0s
H    0     0                      16.1666667   15.00000  7.22%     -    0s
     0     0   15.00000    0    2   16.16667   15.00000  7.22%     -    0s
H    0     2                      16.0000000   15.00000  6.25%     -    0s
     0     2   15.00000    0    2   16.00000   15.00000  6.25%     -    0s
*   56    60               5      15.0000000   15.00000  0.00%   9.1    0s

Cutting planes:
  Cover: 4
  Implied bound: 12
  Flow cover: 7

Explored 63 nodes (3160 simplex iterations) in 0.20 seconds
Thread count was 32 (of 64 available processors)

Solution count 10: 15 16 16.1667 ... 41.8333

Optimal solution found (tolerance 1.00e-04)
Best objective 1.500000000000e+01, best bound 1.500000000000e+01, gap 0.0000%
